# Solution for model r5_t18_m0_0
# Finished Task: 18 / 18
# Makespan: 425.0, Total Distance: 1042.0, Total Time: 0.2629
# R O S F
0 0 11 0.0 0.0
1 1 9 0.0 0.0
2 2 22 0.0 0.0
3 3 20 0.0 0.0
4 4 17 0.0 0.0
5 0 -1 358.0 379.0
6 1 -1 371.0 401.0
7 2 10 206.0 234.0
8 3 15 240.0 271.0
9 1 6 29.0 68.0
10 2 12 257.0 296.0
11 0 19 170.0 208.0
12 2 -1 359.0 395.0
13 4 -1 386.0 425.0
14 4 13 309.0 340.0
15 3 -1 338.0 368.0
16 4 18 183.0 211.0
17 4 16 122.0 155.0
18 4 14 266.0 289.0
19 0 5 233.0 266.0
20 3 21 53.0 86.0
21 3 8 142.0 172.0
22 2 7 71.0 104.0
